p cnf 6 31
-6 -2 0
2 3 4 0
2 -6 0
-2 -6 -1 0
3 -4 -2 0
-1 3 -4 5 -6 2 0
-5 -3 2 -1 4 0
6 -5 -2 -4 3 0
5 6 0
6 -5 -4 0
4 3 1 -2 0
-3 -1 5 4 0
4 1 0
-2 3 5 4 1 0
-6 -5 -2 0
-4 -5 3 0
3 5 0
2 -1 -6 -4 0
5 6 0
5 4 -2 -1 0
4 -1 -6 -2 0
6 1 0
-1 3 0
-1 -3 4 -5 0
6 4 2 0
-5 -4 6 -2 0
2 3 5 0
-2 1 0
1 4 -5 -3 -2 -6 0
6 1 0
-1 6 0
